(declare-fun var0 () String)
(assert (str.in.re var0 (re.++ (re.+ (re.+ (str.to.re "I"))) (re.++ (re.* (re.+ (str.to.re "H"))) (re.++ (re.+ (re.* (str.to.re "GGG"))) (re.++ (re.* (re.* (str.to.re "FFF"))) (re.++ (re.union (re.union (str.to.re "CCC") (str.to.re "DD")) (re.+ (str.to.re "EE"))) (re.++ (re.* (re.union (str.to.re "AAA") (str.to.re "BB"))) (re.++ (re.+ (re.* (str.to.re "z"))) (re.++ (re.* (re.+ (str.to.re "yyy"))) (re.++ (re.union (re.+ (str.to.re "www")) (re.* (str.to.re "xx"))) (re.++ (re.* (re.* (str.to.re "vvv"))) (re.++ (re.union (re.+ (str.to.re "tt")) (re.* (str.to.re "uu"))) (re.++ (re.+ (re.union (str.to.re "r") (str.to.re "sss"))) (re.++ (re.* (re.union (str.to.re "pp") (str.to.re "q"))) (re.++ (re.* (re.+ (str.to.re "oo"))) (re.++ (re.+ (re.* (str.to.re "nnn"))) (re.++ (re.* (re.+ (str.to.re "mmm"))) (re.++ (re.* (re.* (str.to.re "lll"))) (re.++ (re.union (re.+ (str.to.re "iii")) (re.union (str.to.re "j") (str.to.re "kkk"))) (re.++ (re.union (re.* (str.to.re "fff")) (re.union (str.to.re "gg") (str.to.re "hh"))) (re.++ (re.union (re.* (str.to.re "ddd")) (re.* (str.to.re "ee"))) (re.++ (re.union (re.union (str.to.re "a") (str.to.re "b")) (re.* (str.to.re "ccc"))) (re.++ (re.+ (re.* (str.to.re "9"))) (re.++ (re.* (re.+ (str.to.re "888"))) (re.++ (re.+ (re.union (str.to.re "6") (str.to.re "777"))) (re.++ (re.union (re.union (str.to.re "22") (str.to.re "33")) (re.union (str.to.re "4") (str.to.re "555"))) (re.++ (re.+ (re.+ (str.to.re "1"))) (re.++ (re.union (re.+ (str.to.re "}")) (re.union (str.to.re "~~") (str.to.re "00"))) (re.++ (re.+ (re.+ (str.to.re "|||"))) (re.++ (re.union (re.* (str.to.re "_")) (re.union (str.to.re "``") (str.to.re "{"))) (re.++ (re.+ (re.union (str.to.re "]]]") (str.to.re "^^^"))) (re.++ (re.union (re.* (str.to.re "[[[")) (re.* (str.to.re "\\\\"))) (re.++ (re.* (re.union (str.to.re "?") (str.to.re "@"))) (re.++ (re.+ (re.* (str.to.re ">>>"))) (re.++ (re.* (re.* (str.to.re "=="))) (re.++ (re.* (re.union (str.to.re ";") (str.to.re "<"))) (re.++ (re.+ (re.+ (str.to.re ":::"))) (re.++ (re.* (re.union (str.to.re "...") (str.to.re "///"))) (re.++ (re.+ (re.+ (str.to.re "--"))) (re.++ (re.union (re.+ (str.to.re "**")) (re.union (str.to.re "+++") (str.to.re ",,"))) (re.++ (re.* (re.+ (str.to.re "))"))) (re.++ (re.union (re.* (str.to.re "&&&")) (re.union (str.to.re "''") (str.to.re "("))) (re.++ (re.union (re.union (str.to.re "###") (str.to.re "$$$")) (re.* (str.to.re "%"))) (re.++ (re.union (re.union (str.to.re "ZZ") (str.to.re "!")) (re.+ (str.to.re """"))) (re.++ (re.union (re.* (str.to.re "WW")) (re.union (str.to.re "XX") (str.to.re "YY"))) (re.++ (re.union (re.+ (str.to.re "T")) (re.union (str.to.re "U") (str.to.re "VV"))) (re.++ (re.union (re.+ (str.to.re "R")) (re.+ (str.to.re "SS"))) (re.++ (re.union (re.* (str.to.re "PPP")) (re.* (str.to.re "Q"))) (re.++ (re.* (re.+ (str.to.re "O"))) (re.++ (re.* (re.union (str.to.re "MM") (str.to.re "NNN"))) (re.++ (re.* (re.union (str.to.re "KKK") (str.to.re "LLL"))) (re.++ (re.union (re.union (str.to.re "GG") (str.to.re "H")) (re.union (str.to.re "I") (str.to.re "J"))) (re.++ (re.+ (re.+ (str.to.re "F"))) (re.++ (re.union (re.+ (str.to.re "DD")) (re.+ (str.to.re "EEE"))) (re.++ (re.+ (re.* (str.to.re "C"))) (re.++ (re.* (re.union (str.to.re "AA") (str.to.re "BB"))) (re.++ (re.union (re.+ (str.to.re "yyy")) (re.* (str.to.re "z"))) (re.++ (re.* (re.+ (str.to.re "x"))) (re.++ (re.union (re.+ (str.to.re "vv")) (re.+ (str.to.re "www"))) (re.++ (re.union (re.* (str.to.re "t")) (re.+ (str.to.re "u"))) (re.++ (re.+ (re.+ (str.to.re "s"))) (re.++ (re.+ (re.+ (str.to.re "r"))) (re.++ (re.+ (re.* (str.to.re "qq"))) (re.++ (re.* (re.union (str.to.re "oo") (str.to.re "pp"))) (re.++ (re.union (re.+ (str.to.re "ll")) (re.union (str.to.re "m") (str.to.re "nnn"))) (re.++ (re.union (re.* (str.to.re "j")) (re.* (str.to.re "k"))) (re.++ (re.union (re.+ (str.to.re "gg")) (re.union (str.to.re "hh") (str.to.re "iii"))) (re.++ (re.union (re.union (str.to.re "dd") (str.to.re "e")) (re.+ (str.to.re "fff"))) (re.++ (re.* (re.union (str.to.re "bb") (str.to.re "c"))) (re.++ (re.* (re.union (str.to.re "999") (str.to.re "a"))) (re.++ (re.+ (re.* (str.to.re "888"))) (re.++ (re.+ (re.+ (str.to.re "7"))) (re.++ (re.+ (re.* (str.to.re "66"))) (re.++ (re.+ (re.union (str.to.re "4") (str.to.re "55"))) (re.++ (re.* (re.union (str.to.re "22") (str.to.re "3"))) (re.++ (re.* (re.union (str.to.re "000") (str.to.re "1"))) (re.++ (re.union (re.union (str.to.re "||") (str.to.re "}}}")) (re.+ (str.to.re "~"))) (re.++ (re.union (re.+ (str.to.re "```")) (re.* (str.to.re "{{{"))) (re.++ (re.+ (re.* (str.to.re "__"))) (re.++ (re.union (re.union (str.to.re "\\") (str.to.re "]]")) (re.* (str.to.re "^"))) (re.++ (re.union (re.+ (str.to.re "@")) (re.* (str.to.re "["))) (re.++ (re.union (re.* (str.to.re ">>>")) (re.* (str.to.re "???"))) (re.++ (re.union (re.* (str.to.re "<<")) (re.+ (str.to.re "="))) (re.++ (re.union (re.union (str.to.re "/") (str.to.re ":::")) (re.+ (str.to.re ";;;"))) (re.++ (re.* (re.union (str.to.re "-") (str.to.re "..."))) (re.++ (re.* (re.union (str.to.re "++") (str.to.re ",,"))) (re.++ (re.+ (re.* (str.to.re "*"))) (re.++ (re.+ (re.+ (str.to.re "))"))) (re.++ (re.+ (re.* (str.to.re "("))) (re.++ (re.+ (re.+ (str.to.re "''"))) (re.++ (re.+ (re.* (str.to.re "&&"))) (re.++ (re.+ (re.union (str.to.re "$") (str.to.re "%%%"))) (re.++ (re.union (re.+ (str.to.re """")) (re.+ (str.to.re "#"))) (re.++ (re.union (re.+ (str.to.re "ZZ")) (re.* (str.to.re "!!!"))) (re.++ (re.+ (re.+ (str.to.re "Y"))) (re.++ (re.* (re.union (str.to.re "W") (str.to.re "XX"))) (re.++ (re.* (re.* (str.to.re "VVV"))) (re.++ (re.* (re.* (str.to.re "UU"))) (re.++ (re.* (re.union (str.to.re "SSS") (str.to.re "TT"))) (re.++ (re.+ (re.union (str.to.re "QQQ") (str.to.re "RRR"))) (re.++ (re.+ (re.* (str.to.re "P"))) (re.++ (re.union (re.union (str.to.re "M") (str.to.re "NNN")) (re.* (str.to.re "O"))) (re.++ (re.+ (re.union (str.to.re "KK") (str.to.re "LLL"))) (re.++ (re.* (re.union (str.to.re "II") (str.to.re "JJJ"))) (re.++ (re.+ (re.* (str.to.re "HHH"))) (re.++ (re.union (re.* (str.to.re "F")) (re.* (str.to.re "G"))) (re.++ (re.union (re.* (str.to.re "DD")) (re.* (str.to.re "EEE"))) (re.++ (re.+ (re.+ (str.to.re "C"))) (re.++ (re.* (re.+ (str.to.re "BB"))) (re.++ (re.* (re.union (str.to.re "zz") (str.to.re "A"))) (re.++ (re.+ (re.* (str.to.re "yyy"))) (re.++ (re.+ (re.* (str.to.re "x"))) (re.++ (re.* (re.* (str.to.re "ww"))) (re.++ (re.union (re.+ (str.to.re "uu")) (re.+ (str.to.re "v"))) (re.++ (re.* (re.+ (str.to.re "t"))) (re.++ (re.+ (re.union (str.to.re "r") (str.to.re "sss"))) (re.++ (re.+ (re.union (str.to.re "p") (str.to.re "qqq"))) (re.++ (re.* (re.+ (str.to.re "ooo"))) (re.++ (re.+ (re.* (str.to.re "nnn"))) (re.++ (re.+ (re.+ (str.to.re "mm"))) (re.++ (re.* (re.* (str.to.re "lll"))) (re.++ (re.union (re.+ (str.to.re "j")) (re.* (str.to.re "k"))) (re.++ (re.union (re.* (str.to.re "ggg")) (re.union (str.to.re "hhh") (str.to.re "i"))) (re.++ (re.* (re.* (str.to.re "fff"))) (re.++ (re.* (re.* (str.to.re "e"))) (re.++ (re.+ (re.+ (str.to.re "d"))) (re.++ (re.* (re.+ (str.to.re "cc"))) (re.++ (re.union (re.union (str.to.re "888") (str.to.re "9")) (re.union (str.to.re "aa") (str.to.re "bbb"))) (re.++ (re.* (re.* (str.to.re "7"))) (re.++ (re.+ (re.* (str.to.re "66"))) (re.++ (re.+ (re.+ (str.to.re "5"))) (re.++ (re.+ (re.union (str.to.re "33") (str.to.re "44"))) (re.++ (re.+ (re.* (str.to.re "22"))) (re.++ (re.+ (re.+ (str.to.re "1"))) (re.* (re.* (str.to.re "0"))))))))))))))))))))))))))))))))))))))))))))))))))))))))))))))))))))))))))))))))))))))))))))))))))))))))))))))))))))))))))))))))))))))))))
(check-sat)